c instance by G2
c solution = 01111111100010001110111
c Known solution cost is 1142 
p cnf 23 30
w 29 64 25 67 87 1 66 62 39 21 57 34 78 8 73 79 55 25 38 12 98 56 68
23 -12 17 0
22 -19 16 0
-3 -15 22 0
-21 -12 15 0
-5 18 -19 0
-18 -7 23 0
-8 17 -9 0
-6 5 -21 0
6 -18 14 0
-11 -22 -8 0
-8 4 11 0
10 3 -17 0
-16 -6 -4 0
-22 19 -2 0
-18 -14 -17 0
-4 9 11 0
8 -7 15 0
-14 -8 20 0
15 2 -18 0
-4 -21 -10 0
-22 -6 13 0
9 23 15 0
-20 11 15 0
4 5 23 0
12 8 -17 0
-7 12 21 0
-15 -6 -21 0
-1 -23 -4 0
-18 7 -13 0
10 20 21 0
